CMD:
./solvers/bin/cadical --plain --no-reduce -t 1600 ./data/cnfs//zipcpu-busdelay-p15/zipcpu-busdelay-p15.85.cnf

c --- [ banner ] -------------------------------------------------------------
c 
c CaDiCaL SAT Solver
c Copyright (c) 2016-2024
c A. Biere, M. Fleury, N. Froleyks, K. Fazekas, F. Pollitt, T. Faller
c JKU Linz, University of Freiburg, TU Wien
c 
c Version 2.1.3 5296d3d2a9bf48c154ab2acb5e44625776d821bf
c g++ (Gentoo 12.3.1_p20230526 p2) 12.3.1 20230526 -Wall -Wextra -O3 -DNDEBUG
c Sat Aug 9 07:26:21 PDT 2025 Linux cedar2.int.cedar.computecanada.ca 5.14.0-362.24.2.el9_3.x86_64 x86_64
c 
c --- [ limit ] --------------------------------------------------------------
c 
c setting time limit to 1600 seconds real time (due to '-t 1600')
c 
c --- [ parsing input ] ------------------------------------------------------
c 
c reading DIMACS file from './data/cnfs//zipcpu-busdelay-p15/zipcpu-busdelay-p15.85.cnf'
c opening file to read './data/cnfs//zipcpu-busdelay-p15/zipcpu-busdelay-p15.85.cnf'
c found 'p cnf 260670 763369' header
c parsed 763369 clauses in 0.11 seconds process time
c 
c --- [ options ] ------------------------------------------------------------
c 
c   --compact=false                (different from default 'true')
c   --decompose=false              (different from default 'true')
c   --deduplicate=false            (different from default 'true')
c   --elim=false                   (different from default 'true')
c   --probe=false                  (different from default 'true')
c   --reduce=false                 (different from default 'true')
c   --subsume=false                (different from default 'true')
c   --ternary=false                (different from default 'true')
c   --transred=false               (different from default 'true')
c   --vivify=false                 (different from default 'true')
c 
c --- [ solving ] ------------------------------------------------------------
c 
c time measured in process time since initialization
c 
c  seconds   reductions  redundant  irredundant
c          MB    restarts       trail       variables
c           level   conflicts       glue          remaining
c 
c *  0.11 121  0 0   0    0    0  0% 0 749073 252578 97%
c {  0.17 124  0 0   0    0    0  0% 0 749073 252578 97%
c i  0.33 127 469 0  36  703  572 20% 2 749073 252356 97%
c }  0.36 127 353 0  79 1001  752 17% 2 749073 252356 97%
c [  0.36 127  0 0  79 1001  752  0% 0 749073 252356 97%
c O  0.40 127 5775 0  79 1002  752 94% 0 749073 252356 97%
c i  0.41 127 5775 0  79 1002  752 94% 0 749073 252345 97%
c i  0.41 127 5664 0  79 1042  790 93% 1 749073 252134 97%
c i  0.42 127 5409 0  79 1071  807 89% 1 749073 229679 88%
c i  0.42 127 5232 0  79 1078  811 87% 1 749073 226799 87%
c ]  0.48 127 4031 0  79 1123  815 72% 1 749073 187482 72%
c 0  0.48 127 4031 0  79 1123  815 72% 1 749073 187482 72%
c 
c --- [ result ] -------------------------------------------------------------
c 
s UNSATISFIABLE
c 
c --- [ run-time profiling ] -------------------------------------------------
c 
c process time taken by individual solving procedures
c (percentage relative to process time for solving)
c 
c         0.37   99.97% search
c         0.19   50.82% unstable
c         0.13   33.74% stable
c         0.11   29.13% parse
c         0.06   15.39% lucky
c         0.00    0.00% simplify
c   =================================
c         0.37   77.35% solve
c 
c last line shows process time for solving
c (percentage relative to total process time)
c 
c --- [ statistics ] ---------------------------------------------------------
c 
c chronological:               910        81.03 %  of conflicts
c conflicts:                  1123      3006.88    per second
c decisions:                 34234     91662.94    per second
c fixed:                     73096        28.04 %  of all variables
c learned:                    1066        94.92 %  per conflict
c learned_lits:               6554       100.00 %  learned literals
c minimized:                     0         0.00 %  learned literals
c shrunken:                   2051        31.29 %  learned literals
c minishrunken:                218         3.33 %  learned literals
c otfs:                          0         0.00 %  of conflict
c propagations:            5380518        14.41 M  per second
c rephased:                      1      1123.00    interval
c restarts:                     79        14.22    interval
c stabilizing:                   1        10.86 %  of conflicts
c subsumed:                    200         0.03 %  of all clauses
c 
c seconds are measured in process time for solving
c 
c --- [ resources ] ----------------------------------------------------------
c 
c total process time since initialization:         0.48    seconds
c total real time since initialization:            0.49    seconds
c maximum resident set size of process:          124.93    MB
c 
c --- [ shutting down ] ------------------------------------------------------
c 
c exit 20
